language ESSENCE' 1.0

letting jobs = 102
letting horizon = 816
letting resourcesRenew = 2
letting resourcesNonrenew = 2
letting resourceLimits = [19, 19, 562, 515]
letting successors = [[2, 3, 4, 5, 6, 7, 8, 9, 10, 11, 12, 14, 17, 18, 19, 23, 24, 25, 26], [54, 42, 40, 30, 29, 28, 27, 21, 13], [54, 49, 35, 33, 32, 28, 21, 20, 13], [55, 54, 49, 46, 45, 43, 42, 41, 40, 38, 37, 36, 34, 22], [55, 54, 45, 39, 37, 36, 34, 32, 20, 15], [55, 54, 46, 43, 40, 39, 30, 27, 21], [55, 51, 49, 46, 45, 42, 41, 40, 39, 38, 37, 36, 22], [55, 54, 46, 43, 42, 41, 38, 32, 21], [55, 49, 42, 39, 37, 36, 28, 22], [46, 43, 41, 40, 33, 32, 21], [66, 50, 49, 39, 35, 30, 16], [69, 66, 63, 56, 55, 54, 52, 50, 48, 46, 45, 44, 43, 41, 37, 36, 34], [69, 66, 65, 60, 57, 56, 55, 51, 50, 45, 44, 39, 38, 37, 36], [60, 57, 48, 44, 38, 21], [66, 65, 63, 58, 57, 56, 52, 49, 48, 47, 46, 41, 40], [71, 65, 63, 62, 60, 56, 54, 52, 51, 47, 43, 32], [66, 65, 63, 61, 50, 44, 43, 37, 31], [66, 65, 55, 54, 51, 50, 47, 30], [80, 65, 63, 62, 57, 56, 54, 52, 48, 47, 46, 44, 42, 37], [69, 66, 65, 63, 62, 60, 56, 52, 51, 50, 48, 47, 44, 43], [69, 66, 65, 63, 62, 56, 52, 51, 50, 45, 37, 36], [78, 71, 66, 65, 63, 62, 60, 56, 52, 50, 32], [71, 69, 63, 56, 48, 46, 43, 37, 36, 34], [69, 67, 65, 63, 60, 57, 56, 52, 48, 47, 44, 43], [66, 63, 62, 56, 50, 47, 44, 42, 37], [80, 74, 71, 69, 66, 63, 62, 61, 54, 51, 46, 44], [74, 71, 62, 61, 60, 59, 57, 51, 49, 44, 38], [69, 68, 67, 65, 63, 56, 51, 45, 43, 41], [71, 66, 61, 57, 56, 50, 47, 41, 37], [80, 71, 69, 68, 60, 56, 52, 48, 44, 37], [80, 79, 67, 59, 56, 55, 52, 51, 47, 42], [101, 80, 69, 68, 67, 59, 57, 48, 44], [79, 76, 74, 67, 63, 62, 36], [100, 96, 79, 74, 68, 67, 65, 64, 62, 59, 58, 51], [101, 80, 77, 76, 69, 68, 59, 58, 57, 53], [101, 80, 77, 59, 58, 47], [101, 96, 78, 76, 74, 73, 67, 64, 59, 58, 53], [101, 99, 79, 78, 77, 76, 73, 64, 63, 58, 53], [99, 98, 93, 80, 78, 77, 76, 75, 73, 72, 70, 62, 52], [101, 99, 98, 97, 94, 90, 89, 88, 76, 75, 71, 70, 69, 67, 64, 62], [101, 100, 95, 92, 91, 88, 75, 73, 70, 60, 59], [97, 96, 91, 87, 78, 72, 71, 69, 68, 64, 53], [96, 91, 80, 78, 73, 64, 59, 53], [96, 87, 77, 73, 64, 58, 53], [100, 99, 98, 93, 91, 90, 78, 71, 70, 64, 61], [101, 95, 92, 89, 77, 75, 73, 70, 68, 67, 59], [97, 96, 91, 78, 75, 73, 72, 68, 64, 53], [99, 98, 97, 93, 92, 90, 84, 76, 74, 72, 64, 61], [99, 97, 96, 94, 92, 89, 88, 87, 80, 77, 72, 70, 69, 67], [101, 99, 96, 88, 84, 80, 79, 77, 75, 72, 67, 64], [101, 97, 93, 92, 91, 90, 89, 78, 77, 76, 73, 70], [101, 100, 96, 94, 90, 89, 88, 87, 84, 64], [100, 98, 95, 94, 93, 92, 89, 88, 85, 82, 81, 70], [101, 100, 97, 95, 94, 89, 87, 86, 78, 77, 76, 75], [101, 96, 95, 92, 91, 90, 88, 87, 84, 82, 75, 73], [99, 98, 94, 93, 87, 82, 74, 70], [96, 91, 89, 88, 79, 64], [97, 92, 91, 90, 88, 86, 85, 83, 75, 72], [99, 98, 97, 94, 93, 87, 83, 72], [97, 96, 90, 89, 87, 85, 76, 72], [96, 94, 89, 88, 83, 79, 75], [92, 91, 87, 86, 85, 84, 81], [89, 88, 84, 83, 82, 75], [95, 86, 85, 83, 82, 81], [93, 92, 84, 83, 82, 81], [91, 83, 75, 72], [93, 91, 85, 83], [90, 86, 84, 83], [84, 73], [86, 84, 83], [92, 84, 81], [82, 81], [85, 81], [88, 81], [81], [82], [81], [84], [87], [90], [102], [102], [102], [102], [102], [102], [102], [102], [102], [102], [102], [102], [102], [102], [102], [102], [102], [102], [102], [102], [102], []]
letting durations = [[0], [2, 5, 8], [4, 8, 10], [3, 9, 10], [1, 6, 7], [7, 9, 10], [1, 2, 8], [1, 9, 10], [2, 3, 4], [1, 3, 10], [5, 7, 9], [1, 3, 9], [2, 5, 7], [5, 7, 8], [2, 3, 10], [2, 4, 5], [3, 8, 9], [4, 6, 10], [4, 5, 8], [3, 4, 8], [3, 4, 6], [2, 3, 4], [4, 9, 10], [4, 7, 10], [5, 7, 8], [7, 9, 10], [1, 2, 7], [4, 5, 8], [5, 7, 10], [2, 4, 9], [7, 9, 10], [1, 2, 3], [1, 9, 10], [2, 7, 8], [4, 5, 6], [3, 5, 10], [2, 3, 4], [6, 7, 8], [4, 6, 7], [2, 8, 9], [4, 8, 9], [2, 8, 9], [3, 4, 5], [3, 4, 10], [6, 9, 10], [3, 4, 9], [3, 6, 9], [1, 6, 10], [1, 2, 6], [1, 3, 10], [2, 4, 6], [2, 8, 10], [3, 6, 8], [1, 5, 7], [5, 6, 8], [7, 8, 9], [8, 9, 10], [3, 4, 5], [1, 2, 8], [2, 6, 10], [5, 7, 8], [2, 4, 5], [4, 6, 9], [4, 9, 10], [1, 2, 6], [1, 8, 9], [6, 8, 9], [1, 6, 7], [6, 7, 9], [2, 8, 9], [6, 7, 10], [1, 9, 10], [1, 2, 8], [2, 3, 9], [3, 7, 8], [7, 9, 10], [2, 6, 8], [1, 8, 10], [7, 9, 10], [4, 5, 7], [5, 6, 7], [4, 5, 6], [2, 4, 10], [1, 3, 4], [1, 2, 8], [3, 4, 5], [1, 2, 7], [2, 5, 6], [1, 8, 9], [5, 8, 9], [5, 6, 7], [1, 9, 10], [1, 5, 7], [5, 7, 8], [5, 6, 9], [7, 8, 9], [2, 5, 10], [4, 5, 7], [1, 5, 9], [3, 9, 10], [1, 2, 3], [0]]
letting resourceUsage = [[[0, 0, 0, 0]], [[4, 4, 8, 10], [2, 2, 8, 6], [2, 1, 7, 4]], [[4, 3, 5, 8], [2, 2, 5, 6], [1, 2, 2, 3]], [[4, 4, 5, 5], [3, 4, 4, 3], [2, 4, 3, 2]], [[3, 2, 4, 10], [3, 2, 2, 8], [3, 2, 2, 7]], [[3, 4, 6, 4], [2, 3, 2, 4], [2, 3, 1, 3]], [[4, 4, 5, 4], [2, 4, 5, 4], [1, 4, 5, 4]], [[3, 3, 8, 7], [3, 3, 7, 4], [1, 3, 4, 3]], [[5, 4, 8, 6], [4, 2, 7, 4], [4, 1, 7, 3]], [[4, 3, 9, 6], [2, 3, 6, 6], [2, 3, 6, 5]], [[1, 1, 8, 9], [1, 1, 8, 5], [1, 1, 6, 4]], [[2, 3, 8, 2], [1, 2, 6, 2], [1, 2, 4, 2]], [[3, 3, 1, 8], [3, 3, 1, 7], [3, 3, 1, 6]], [[3, 2, 7, 5], [3, 2, 5, 5], [3, 2, 5, 4]], [[4, 5, 8, 6], [4, 3, 7, 6], [4, 2, 4, 3]], [[2, 1, 6, 4], [2, 1, 4, 3], [2, 1, 4, 2]], [[3, 4, 8, 8], [3, 4, 5, 6], [3, 4, 3, 4]], [[2, 4, 6, 8], [2, 4, 6, 7], [2, 3, 4, 8]], [[3, 1, 6, 7], [3, 1, 5, 6], [3, 1, 5, 5]], [[3, 4, 4, 2], [1, 3, 4, 1], [1, 2, 4, 1]], [[4, 4, 7, 5], [4, 3, 7, 4], [4, 2, 7, 1]], [[4, 4, 8, 8], [3, 3, 6, 4], [3, 2, 5, 1]], [[5, 2, 7, 8], [3, 2, 7, 6], [3, 2, 3, 1]], [[3, 2, 7, 8], [2, 2, 3, 6], [2, 2, 3, 5]], [[4, 5, 8, 6], [4, 4, 7, 4], [4, 3, 7, 2]], [[3, 2, 7, 7], [3, 2, 4, 6], [3, 2, 3, 5]], [[1, 5, 7, 9], [1, 3, 3, 7], [1, 3, 3, 6]], [[4, 2, 7, 9], [3, 2, 3, 9], [2, 2, 3, 9]], [[5, 3, 7, 2], [4, 3, 7, 2], [3, 3, 6, 2]], [[3, 2, 5, 9], [2, 1, 5, 6], [1, 1, 4, 3]], [[2, 1, 10, 6], [2, 1, 10, 5], [1, 1, 10, 5]], [[5, 2, 8, 6], [3, 2, 7, 5], [3, 2, 5, 4]], [[3, 3, 4, 8], [1, 2, 2, 5], [1, 2, 1, 3]], [[5, 2, 10, 8], [5, 2, 10, 7], [5, 2, 10, 6]], [[4, 3, 7, 5], [3, 3, 6, 4], [3, 3, 6, 2]], [[4, 3, 10, 6], [4, 3, 9, 6], [4, 3, 8, 5]], [[4, 5, 7, 1], [3, 3, 6, 1], [3, 3, 3, 1]], [[4, 2, 7, 4], [3, 1, 7, 4], [3, 1, 7, 3]], [[3, 4, 9, 4], [1, 3, 9, 3], [1, 2, 9, 2]], [[5, 5, 8, 3], [3, 5, 7, 3], [2, 5, 6, 3]], [[2, 3, 9, 7], [2, 3, 6, 6], [2, 2, 6, 3]], [[3, 4, 8, 7], [3, 3, 6, 5], [3, 3, 6, 4]], [[5, 4, 4, 9], [5, 3, 4, 9], [5, 1, 4, 9]], [[3, 4, 7, 9], [2, 3, 3, 9], [2, 2, 2, 9]], [[2, 3, 8, 2], [1, 1, 7, 2], [1, 1, 7, 1]], [[3, 4, 7, 5], [2, 3, 6, 5], [2, 3, 3, 4]], [[4, 3, 6, 1], [4, 3, 3, 2], [4, 3, 3, 1]], [[5, 4, 6, 6], [4, 2, 4, 3], [3, 2, 3, 2]], [[3, 3, 7, 6], [2, 1, 5, 6], [2, 1, 5, 2]], [[4, 4, 9, 4], [2, 3, 5, 3], [2, 3, 2, 1]], [[3, 3, 7, 7], [3, 2, 6, 5], [3, 2, 6, 2]], [[3, 2, 10, 8], [2, 2, 9, 7], [1, 2, 8, 7]], [[5, 3, 4, 10], [3, 2, 3, 9], [3, 2, 3, 8]], [[3, 5, 7, 7], [3, 4, 5, 4], [3, 3, 5, 3]], [[1, 4, 3, 6], [1, 4, 1, 4], [1, 3, 1, 3]], [[4, 4, 6, 6], [3, 3, 5, 7], [3, 3, 5, 6]], [[3, 5, 7, 3], [3, 3, 7, 3], [1, 2, 6, 3]], [[4, 3, 7, 6], [3, 3, 6, 4], [2, 2, 6, 3]], [[5, 3, 7, 9], [4, 2, 7, 8], [4, 1, 7, 6]], [[4, 4, 6, 7], [3, 3, 6, 6], [3, 3, 6, 1]], [[4, 1, 3, 4], [3, 1, 2, 3], [3, 1, 2, 2]], [[5, 2, 7, 7], [4, 2, 5, 7], [3, 2, 4, 7]], [[3, 2, 4, 2], [3, 2, 3, 2], [3, 1, 2, 2]], [[3, 2, 5, 7], [3, 1, 4, 7], [1, 1, 3, 3]], [[3, 3, 6, 6], [2, 3, 5, 3], [2, 2, 5, 1]], [[1, 5, 5, 3], [1, 5, 2, 3], [1, 5, 2, 1]], [[1, 5, 6, 9], [1, 3, 5, 5], [1, 3, 3, 4]], [[2, 3, 8, 4], [1, 2, 6, 3], [1, 2, 5, 2]], [[4, 2, 7, 8], [2, 2, 5, 6], [2, 2, 3, 6]], [[5, 4, 9, 10], [3, 3, 7, 6], [3, 1, 7, 6]], [[4, 5, 9, 8], [4, 3, 7, 5], [2, 2, 7, 3]], [[1, 1, 5, 7], [1, 1, 5, 5], [1, 1, 3, 5]], [[4, 5, 4, 6], [3, 3, 3, 4], [1, 2, 3, 3]], [[3, 3, 6, 8], [2, 2, 2, 5], [2, 1, 2, 5]], [[4, 3, 10, 8], [4, 3, 9, 8], [3, 2, 8, 4]], [[3, 5, 8, 6], [3, 3, 7, 5], [3, 3, 7, 4]], [[2, 4, 5, 7], [2, 3, 5, 7], [2, 2, 4, 6]], [[2, 1, 2, 7], [2, 1, 2, 6], [2, 1, 2, 5]], [[4, 4, 5, 2], [3, 3, 5, 1], [3, 1, 5, 1]], [[4, 5, 10, 3], [4, 4, 6, 2], [4, 4, 5, 1]], [[4, 4, 6, 7], [3, 3, 5, 5], [3, 3, 4, 5]], [[2, 3, 8, 9], [1, 2, 7, 9], [1, 2, 6, 9]], [[3, 4, 3, 6], [1, 4, 2, 5], [1, 3, 2, 3]], [[3, 3, 1, 8], [2, 3, 1, 9], [2, 3, 1, 8]], [[3, 4, 8, 7], [2, 3, 7, 7], [1, 3, 7, 7]], [[4, 5, 6, 7], [3, 4, 6, 5], [2, 4, 6, 5]], [[2, 3, 9, 3], [2, 3, 7, 2], [2, 2, 6, 2]], [[3, 2, 7, 9], [2, 2, 5, 7], [2, 2, 4, 4]], [[5, 3, 6, 2], [4, 2, 5, 2], [3, 2, 2, 2]], [[5, 3, 5, 5], [5, 2, 5, 3], [5, 1, 5, 2]], [[5, 5, 6, 6], [3, 3, 5, 5], [2, 3, 5, 1]], [[4, 1, 8, 6], [4, 1, 7, 3], [3, 1, 7, 3]], [[5, 1, 10, 7], [4, 1, 9, 5], [2, 1, 9, 3]], [[3, 2, 7, 10], [3, 1, 7, 11], [3, 1, 7, 10]], [[4, 3, 9, 9], [4, 2, 8, 6], [4, 2, 6, 2]], [[3, 5, 7, 9], [1, 5, 7, 7], [1, 5, 4, 6]], [[1, 4, 6, 4], [1, 4, 4, 4], [1, 4, 3, 4]], [[5, 4, 5, 7], [4, 4, 4, 6], [4, 4, 4, 5]], [[5, 2, 5, 8], [4, 1, 5, 7], [4, 1, 4, 6]], [[4, 4, 4, 4], [4, 2, 2, 4], [4, 1, 2, 4]], [[1, 3, 10, 8], [1, 3, 7, 8], [1, 2, 4, 7]], [[0, 0, 0, 0]]]
